p cnf 43 141
-2 -3 -4 0
2 3 -4 0
-2 3 4 0
2 -3 4 0
-7 -1 0
-7 6 0
1 -6 7 0
-8 -7 0
-8 -7 0
7 8 0
-9 -8 0
-9 6 0
8 -6 9 0
-10 5 0
-10 9 0
-5 -9 10 0
11 -4 0
11 10 0
4 -10 -11 0
12 -1 0
12 -11 0
1 11 -12 0
-12 -7 -13 0
12 7 -13 0
-12 7 13 0
12 -7 13 0
-15 2 0
-15 14 0
-2 -14 15 0
13 15 -16 0
-13 -15 -16 0
13 -15 16 0
-13 15 16 0
17 6 0
17 7 0
-6 -7 -17 0
19 -6 0
19 -18 0
6 18 -19 0
-20 17 0
-20 -19 0
-17 19 20 0
22 -1 0
22 21 0
1 -21 -22 0
-24 23 0
-24 -3 0
-23 3 24 0
25 22 0
25 -24 0
-22 24 -25 0
-3 -26 -27 0
3 26 -27 0
-3 26 27 0
3 -26 27 0
-28 2 0
-28 6 0
-2 -6 28 0
5 28 -29 0
-5 -28 -29 0
5 -28 29 0
-5 28 29 0
-29 -3 -30 0
29 3 -30 0
-29 3 30 0
29 -3 30 0
-27 -30 -31 0
27 30 -31 0
-27 30 31 0
27 -30 31 0
32 -25 0
32 -31 0
25 31 -32 0
-20 -32 -33 0
20 32 -33 0
-20 32 33 0
20 -32 33 0
34 -7 0
34 -10 0
7 10 -34 0
-35 33 0
-35 34 0
-33 -34 35 0
36 -16 0
36 -35 0
16 35 -36 0
10 4 -37 0
-10 -4 -37 0
10 -4 37 0
-10 4 37 0
38 1 0
38 2 0
-1 -2 -38 0
39 28 0
39 -10 0
-28 10 -39 0
-40 39 0
-40 -28 0
-39 28 40 0
-41 -38 0
-41 -40 0
38 40 41 0
-42 -37 0
-42 -41 0
37 41 42 0
43 36 0
43 -42 0
-36 42 -43 0
26 -41 0
-41 -35 -23 -7 0
-25 -32 20 0
43 14 0
10 26 29 0
-20 9 5 30 2 -4 0
-26 -43 22 -1 0
35 14 -30 31 34 0
-1 -27 0
-40 31 0
-18 23 -14 0
14 42 13 0
-4 8 43 -5 0
14 40 -29 -13 1 0
19 9 0
-11 -4 -15 23 36 0
-35 -27 -10 -9 26 0
36 -4 32 -5 -15 -26 0
-36 -23 38 19 37 0
-25 3 -11 2 0
-35 18 0
-6 34 -22 4 0
8 26 0
21 -24 27 28 -41 -36 0
-16 -25 0
38 -8 0
7 43 35 30 0
6 38 22 0
-5 43 42 -16 -12 0
-33 -29 7 13 -14 -15 0
11 -30 -5 3 43 -32 0
6 40 -30 -43 -18 0
43 0
